p ocr 789 761 1549
1 790
1 1038
2 791
3 792
4 793
5 794
5 1041
5 1042
6 795
7 796
7 1046
7 1047
7 1048
7 1049
7 1050
8 797
8 1054
8 1055
9 798
10 799
10 1056
10 1057
10 1058
10 1059
11 800
11 1060
12 801
13 802
14 803
15 804
15 1062
16 805
17 806
17 1064
18 807
19 808
20 809
20 1067
20 1068
21 810
22 811
22 1072
22 1073
23 812
23 1074
24 813
24 1075
25 814
26 815
27 816
27 1080
28 817
29 818
30 819
30 1081
30 1082
31 820
32 821
33 822
34 823
35 824
35 1098
35 1099
35 1100
35 1101
36 825
37 826
37 1102
38 827
38 1104
38 1105
38 1106
38 1107
39 828
39 1117
40 829
41 830
42 831
42 1126
42 1127
43 832
43 1128
43 1129
44 833
44 1131
45 834
46 835
46 1132
47 836
47 1133
47 1134
47 1135
47 1136
47 1137
47 1138
48 837
48 1139
48 1140
48 1141
48 1142
49 838
50 839
51 840
52 841
53 842
53 1149
53 1150
53 1151
53 1152
53 1153
54 843
54 1154
55 844
56 845
57 846
58 847
59 848
59 1164
60 849
61 850
62 851
62 1166
62 1167
62 1168
62 1169
62 1170
63 852
63 1171
63 1172
63 1173
64 853
65 854
66 855
66 1181
66 1182
67 856
68 857
69 858
69 1188
70 859
71 860
72 861
73 862
74 863
74 1193
74 1194
75 864
75 1198
75 1199
75 1200
76 865
77 866
77 1201
77 1202
78 867
78 1203
79 868
80 869
81 870
81 1205
81 1206
81 1207
82 871
83 872
83 1208
83 1209
83 1210
84 873
84 1212
85 874
85 1213
86 875
86 1214
86 1215
87 876
87 1225
87 1226
88 877
88 1227
88 1228
89 878
90 879
90 1230
90 1231
91 880
91 1233
91 1234
92 881
93 882
94 883
94 1244
94 1245
95 884
95 1246
95 1247
96 885
96 1252
97 886
98 887
99 888
99 1253
99 1254
99 1255
99 1256
100 889
100 1257
101 890
101 1258
102 891
103 892
104 893
105 894
106 895
107 896
108 897
109 898
109 1267
109 1268
109 1269
109 1270
110 899
110 1273
110 1274
111 900
111 1275
111 1276
111 1277
111 1278
112 901
112 1279
112 1280
113 902
114 903
114 1283
114 1284
114 1285
115 904
116 905
116 1289
116 1290
116 1291
116 1292
117 906
118 907
118 1293
119 908
119 1294
120 909
120 1295
120 1296
120 1297
120 1298
120 1299
121 910
122 911
122 1300
123 912
124 913
125 914
125 1306
126 915
127 916
128 917
128 1312
128 1313
129 918
129 1314
130 919
131 920
131 1315
132 921
133 922
133 1318
134 923
134 1321
135 924
136 925
136 1324
137 926
137 1326
138 927
138 1327
139 928
139 1328
139 1329
140 929
140 1330
140 1331
141 930
142 931
142 1332
143 932
143 1333
143 1334
144 933
144 1335
145 934
145 1336
145 1337
145 1338
146 935
146 1339
147 936
148 937
149 938
150 939
151 940
152 941
152 1343
152 1344
152 1345
152 1346
152 1347
152 1348
152 1349
152 1350
152 1351
153 942
154 943
155 944
155 1362
155 1363
156 945
156 1364
157 946
157 1365
157 1366
157 1367
157 1368
157 1369
157 1370
157 1371
157 1372
158 947
158 1373
159 948
160 949
161 950
161 1378
161 1379
162 951
163 952
164 953
164 1382
164 1383
164 1384
165 954
166 955
167 956
167 1389
168 957
168 1390
169 958
169 1391
169 1392
170 959
171 960
172 961
173 962
174 963
175 964
175 1400
175 1401
175 1402
175 1403
175 1404
175 1405
176 965
177 966
178 967
178 1409
179 968
180 969
180 1410
181 970
181 1411
182 971
183 972
184 973
185 974
185 1413
186 975
187 976
188 977
188 1414
189 978
190 979
190 1426
190 1427
190 1428
191 980
192 981
193 982
194 983
195 984
195 1437
196 985
197 986
197 1440
197 1441
198 987
199 988
199 1442
199 1443
200 989
201 990
202 991
202 1447
202 1448
202 1449
202 1450
202 1451
202 1452
203 992
203 1462
204 993
204 1463
204 1464
205 994
206 995
207 996
207 1465
208 997
209 998
209 1472
210 999
210 1473
211 1000
211 1474
212 1001
213 1002
214 1003
215 1004
216 1005
216 1477
216 1478
217 1006
217 1481
217 1482
217 1483
218 1007
219 1008
220 1009
220 1487
221 1010
221 1488
221 1489
221 1490
221 1491
221 1492
222 1011
223 1012
223 1493
223 1494
223 1495
223 1496
223 1497
223 1498
224 1013
225 1014
226 1015
227 1016
227 1503
227 1504
227 1505
228 1017
228 1506
229 1018
229 1508
230 1019
231 1020
231 1512
232 1021
232 1515
232 1516
232 1517
233 1022
233 1518
234 1023
234 1519
234 1520
234 1521
234 1522
234 1523
235 1024
235 1524
236 1025
237 1026
237 1529
237 1530
237 1531
237 1532
237 1533
238 1027
239 1028
240 1029
241 1030
241 1545
241 1546
241 1547
242 1031
243 1032
244 1033
245 1034
246 1035
246 1548
247 1036
248 1037
250 1039
251 1040
254 1043
257 1044
257 1045
262 1051
262 1052
262 1053
273 1061
277 1063
285 1065
286 1066
295 1069
295 1070
296 1071
304 1076
304 1077
305 1078
305 1079
313 1083
313 1084
315 1085
315 1086
315 1087
319 1088
320 1089
321 1090
321 1091
321 1092
321 1093
321 1094
321 1095
321 1096
321 1097
326 1103
329 1108
329 1109
329 1110
329 1111
329 1112
330 1113
330 1114
330 1115
330 1116
332 1118
332 1119
334 1120
334 1121
334 1122
334 1123
334 1124
334 1125
340 1130
360 1143
360 1144
361 1145
361 1146
361 1147
361 1148
366 1155
366 1156
366 1157
367 1158
367 1159
370 1160
371 1161
371 1162
371 1163
376 1165
384 1174
384 1175
384 1176
385 1177
386 1178
387 1179
389 1180
392 1183
392 1184
392 1185
393 1186
396 1187
400 1189
400 1190
401 1191
401 1192
402 1195
402 1196
402 1197
411 1204
419 1211
425 1216
425 1217
426 1218
426 1219
427 1220
427 1221
427 1222
427 1223
427 1224
430 1229
431 1232
436 1235
437 1236
438 1237
439 1238
439 1239
439 1240
439 1241
441 1242
443 1243
450 1248
451 1249
451 1250
451 1251
467 1259
467 1260
468 1261
469 1262
469 1263
469 1264
470 1265
470 1266
480 1271
480 1272
499 1281
499 1282
504 1286
504 1287
504 1288
523 1301
523 1302
523 1303
524 1304
524 1305
526 1307
528 1308
528 1309
528 1310
529 1311
535 1316
535 1317
541 1319
541 1320
545 1322
545 1323
550 1325
568 1340
570 1341
572 1342
578 1352
578 1353
581 1354
582 1355
583 1356
583 1357
583 1358
583 1359
583 1360
583 1361
600 1374
600 1375
602 1376
602 1377
607 1380
607 1381
619 1385
619 1386
622 1387
622 1388
626 1393
628 1394
629 1395
630 1396
633 1397
633 1398
633 1399
640 1406
641 1407
641 1408
657 1412
663 1415
663 1416
664 1417
665 1418
665 1419
665 1420
665 1421
666 1422
668 1423
669 1424
670 1425
676 1429
677 1430
677 1431
677 1432
678 1433
679 1434
679 1435
679 1436
681 1438
681 1439
689 1444
689 1445
689 1446
696 1453
696 1454
696 1455
696 1456
698 1457
699 1458
699 1459
699 1460
699 1461
707 1466
707 1467
707 1468
708 1469
709 1470
710 1471
716 1475
716 1476
731 1479
732 1480
734 1484
734 1485
735 1486
745 1499
745 1500
746 1501
746 1502
751 1507
752 1509
752 1510
752 1511
753 1513
753 1514
772 1525
772 1526
772 1527
772 1528
778 1534
778 1535
779 1536
779 1537
779 1538
779 1539
780 1540
780 1541
780 1542
780 1543
780 1544
786 1549
789 1550
2 790
3 791
250 791
4 792
251 792
252 792
5 793
6 794
253 794
254 794
255 794
7 795
256 795
257 795
8 796
262 796
9 797
10 798
11 799
12 800
13 801
271 801
272 801
14 802
273 802
15 803
274 803
16 804
17 805
275 805
276 805
277 805
278 805
279 805
18 806
283 806
284 806
285 806
19 807
20 808
286 808
21 809
295 809
22 810
296 810
23 811
24 812
25 813
26 814
27 815
304 815
305 815
28 816
29 817
30 818
306 818
31 819
312 819
32 820
313 820
314 820
33 821
315 821
34 822
316 822
317 822
318 822
319 822
320 822
321 822
35 823
36 824
37 825
325 825
38 826
326 826
39 827
329 827
330 827
40 828
332 828
333 828
41 829
334 829
335 829
42 830
43 831
44 832
340 832
45 833
46 834
341 834
342 834
343 834
47 835
344 835
48 836
49 837
50 838
359 838
360 838
361 838
51 839
52 840
53 841
54 842
364 842
55 843
365 843
366 843
56 844
367 844
368 844
369 844
370 844
57 845
58 846
59 847
371 847
60 848
61 849
372 849
373 849
62 850
374 850
375 850
376 850
63 851
382 851
64 852
384 852
385 852
386 852
387 852
65 853
388 853
66 854
389 854
67 855
390 855
391 855
392 855
393 855
68 856
394 856
395 856
396 856
397 856
69 857
398 857
399 857
70 858
71 859
400 859
72 860
73 861
401 861
74 862
75 863
402 863
403 863
404 863
76 864
77 865
78 866
79 867
80 868
410 868
81 869
411 869
82 870
83 871
412 871
84 872
419 872
85 873
86 874
87 875
425 875
426 875
427 875
88 876
89 877
430 877
90 878
91 879
431 879
92 880
436 880
437 880
438 880
439 880
440 880
441 880
93 881
442 881
443 881
94 882
95 883
96 884
449 884
450 884
451 884
97 885
98 886
99 887
100 888
101 889
102 890
467 890
468 890
103 891
104 892
469 892
470 892
105 893
106 894
471 894
472 894
107 895
108 896
109 897
110 898
480 898
111 899
112 900
113 901
114 902
499 902
115 903
504 903
116 904
117 905
118 906
119 907
120 908
516 908
121 909
519 909
122 910
123 911
522 911
124 912
523 912
524 912
125 913
525 913
126 914
127 915
526 915
527 915
128 916
528 916
529 916
129 917
530 917
531 917
532 917
533 917
534 917
130 918
131 919
132 920
535 920
133 921
134 922
540 922
541 922
135 923
543 923
544 923
545 923
136 924
137 925
549 925
550 925
138 926
139 927
551 927
552 927
140 928
141 929
142 930
143 931
556 931
144 932
145 933
146 934
565 934
147 935
568 935
569 935
148 936
570 936
149 937
571 937
150 938
572 938
151 939
152 940
153 941
578 941
579 941
154 942
580 942
581 942
582 942
155 943
583 943
584 943
156 944
157 945
590 945
158 946
159 947
160 948
599 948
600 948
601 948
602 948
161 949
162 950
163 951
164 952
605 952
606 952
607 952
165 953
619 953
166 954
167 955
620 955
621 955
622 955
168 956
169 957
170 958
626 958
171 959
172 960
627 960
173 961
628 961
629 961
174 962
630 962
631 962
632 962
175 963
633 963
176 964
639 964
177 965
640 965
178 966
641 966
642 966
643 966
179 967
180 968
181 969
182 970
657 970
183 971
658 971
184 972
659 972
185 973
186 974
187 975
188 976
189 977
663 977
664 977
665 977
666 977
190 978
667 978
668 978
669 978
670 978
671 978
191 979
192 980
676 980
193 981
677 981
194 982
678 982
679 982
195 983
680 983
196 984
197 985
681 985
198 986
682 986
199 987
200 988
201 989
202 990
689 990
203 991
696 991
697 991
698 991
699 991
204 992
205 993
206 994
704 994
705 994
207 995
208 996
707 996
209 997
708 997
709 997
710 997
210 998
211 999
212 1000
213 1001
714 1001
214 1002
215 1003
715 1003
216 1004
716 1004
717 1004
217 1005
731 1005
732 1005
218 1006
734 1006
219 1007
735 1007
220 1008
221 1009
736 1009
222 1010
223 1011
224 1012
745 1012
746 1012
225 1013
226 1014
227 1015
228 1016
749 1016
229 1017
750 1017
751 1017
230 1018
231 1019
752 1019
232 1020
753 1020
233 1021
234 1022
765 1022
766 1022
235 1023
236 1024
237 1025
772 1025
238 1026
778 1026
779 1026
780 1026
781 1026
239 1027
240 1028
241 1029
782 1029
242 1030
783 1030
243 1031
244 1032
245 1033
246 1034
247 1035
786 1035
787 1035
788 1035
248 1036
789 1036
249 1037
258 1046
259 1047
260 1047
261 1050
263 1056
264 1056
265 1056
266 1056
267 1056
268 1057
269 1057
270 1060
280 1064
281 1064
282 1064
287 1067
288 1067
289 1067
290 1067
291 1067
292 1067
293 1068
294 1068
297 1072
298 1074
299 1075
300 1075
301 1075
302 1075
303 1075
307 1081
308 1081
309 1081
310 1081
311 1082
322 1100
323 1100
324 1101
327 1106
328 1106
331 1117
336 1126
337 1127
338 1127
339 1128
345 1133
346 1136
347 1137
348 1137
349 1139
350 1140
351 1140
352 1140
353 1140
354 1140
355 1140
356 1141
357 1141
358 1142
362 1149
363 1151
377 1166
378 1168
379 1170
380 1170
381 1170
383 1171
405 1198
406 1199
407 1199
408 1202
409 1203
413 1208
414 1208
415 1209
416 1210
417 1210
418 1210
420 1212
421 1212
422 1213
423 1215
424 1215
428 1226
429 1228
432 1233
433 1233
434 1234
435 1234
444 1244
445 1245
446 1246
447 1246
448 1246
452 1253
453 1255
454 1255
455 1255
456 1255
457 1256
458 1256
459 1256
460 1258
461 1258
462 1258
463 1258
464 1258
465 1258
466 1258
473 1267
474 1267
475 1267
476 1269
477 1269
478 1269
479 1269
481 1273
482 1273
483 1273
484 1273
485 1274
486 1274
487 1276
488 1276
489 1276
490 1276
491 1277
492 1277
493 1278
494 1279
495 1279
496 1279
497 1279
498 1280
500 1284
501 1284
502 1284
503 1285
505 1289
506 1289
507 1290
508 1290
509 1290
510 1291
511 1291
512 1291
513 1292
514 1294
515 1294
517 1295
518 1296
520 1300
521 1300
536 1318
537 1318
538 1318
539 1318
542 1321
546 1324
547 1324
548 1324
553 1330
554 1330
555 1332
557 1333
558 1333
559 1334
560 1334
561 1336
562 1336
563 1336
564 1338
566 1339
567 1339
573 1349
574 1349
575 1350
576 1350
577 1350
585 1362
586 1362
587 1363
588 1363
589 1364
591 1366
592 1369
593 1370
594 1370
595 1373
596 1373
597 1373
598 1373
603 1378
604 1379
608 1382
609 1382
610 1383
611 1383
612 1383
613 1383
614 1383
615 1383
616 1384
617 1384
618 1384
623 1390
624 1390
625 1391
634 1401
635 1401
636 1403
637 1403
638 1404
644 1409
645 1409
646 1409
647 1409
648 1409
649 1409
650 1409
651 1409
652 1410
653 1410
654 1410
655 1410
656 1410
660 1413
661 1413
662 1414
672 1427
673 1427
674 1427
675 1427
683 1442
684 1442
685 1442
686 1442
687 1442
688 1442
690 1447
691 1448
692 1450
693 1450
694 1450
695 1450
700 1464
701 1464
702 1464
703 1464
706 1465
711 1474
712 1474
713 1474
718 1477
719 1477
720 1477
721 1477
722 1477
723 1477
724 1477
725 1477
726 1477
727 1477
728 1477
729 1478
730 1478
733 1482
737 1488
738 1488
739 1490
740 1491
741 1492
742 1494
743 1494
744 1498
747 1503
748 1504
754 1515
755 1515
756 1515
757 1516
758 1516
759 1516
760 1516
761 1516
762 1516
763 1518
764 1518
767 1519
768 1521
769 1522
770 1522
771 1524
773 1530
774 1530
775 1530
776 1532
777 1532
784 1548
785 1548